c is-sat
p cnf 15 94
-10 -6 -13 0
-2 -12 -9 0
-8 -6 3 0
-1 -6 -9 0
-12 -15 -7 0
-10 -5 15 0
-9 -6 -15 0
7 -12 -11 0
-14 -1 10 0
-2 -9 -12 0
-8 -1 3 0
-11 -15 -3 0
-12 -14 -15 0
-2 15 6 0
-12 -13 -5 0
-2 7 1 0
-3 13 -12 0
-12 -14 -13 0
-1 -10 -8 0
6 -12 -8 0
-15 -14 5 0
-4 -3 -13 0
-2 -12 10 0
-13 -9 -14 0
-13 12 -8 0
-5 -13 -1 0
13 -3 -8 0
4 11 -9 0
9 15 -4 0
-6 -8 -12 0
-12 -9 -8 0
-1 -11 5 0
-10 -12 -6 0
-3 -2 7 0
13 -10 -6 0
-6 12 10 0
-6 2 15 0
-14 5 -13 0
15 -8 -13 0
-7 -5 -4 0
-15 -8 -9 0
6 14 15 0
-13 -9 -10 0
13 -7 -15 0
-11 6 12 0
-5 13 -1 0
-10 -6 3 0
-4 9 -8 0
-3 -2 10 0
15 -1 -11 0
-8 4 3 0
-12 -7 11 0
6 10 -11 0
10 -3 7 0
-12 -6 -15 0
-15 -14 13 0
-1 -2 -14 0
-12 5 -6 0
7 -5 -15 0
-6 -13 10 0
-2 -9 -12 0
-12 4 -7 0
-4 -8 -12 0
1 13 -8 0
11 12 7 0
-1 -3 -7 0
-2 15 -7 0
7 4 3 0
-9 -13 -11 0
-2 -6 15 0
13 -2 1 0
-13 -3 -2 0
-6 -4 -1 0
-8 4 -11 0
-11 -4 -5 0
-15 4 -3 0
13 -7 4 0
8 5 -13 0
-8 -6 -4 0
2 -14 -7 0
-2 9 -15 0
15 -9 -12 0
-8 13 -3 0
-8 -5 -14 0
3 -4 -1 0
-4 3 -1 0
-12 -7 3 0
-3 -4 11 0
-11 -5 -10 0
-15 -13 -14 0
-10 -15 -3 0
-2 -6 14 0
-3 -7 8 0
6 -7 -3 0
